data/benchmarks/bayes/90-17-8-q.cnf
p cnf 1377 1211
c weights 0.113993 0.886007 1 1 1 1 1 1 1 1 1 1 1 1 1 1 1 1 1 1 1 1 1 1 1 1 1 1 1 1 1 1 1 1 1 1 1 1 1 1 1 1 1 1 1 1 1 1 1 1 1 1 1 1 1 1 1 1 1 1 1 1 1 1 1 1 1 1 1 1 1 1 1 1 1 1 1 1 1 1 1 1 1 1 1 1 1 1 1 1 1 1 1 1 1 1 1 1 1 1 1 1 1 1 1 1 1 1 1 1 1 1 1 1 1 1 1 1 1 1 1 1 1 1 1 1 1 1 1 1 1 1 1 1 1 1 1 1 1 1 1 1 1 1 1 1 1 1 1 1 1 1 1 1 1 1 1 1 1 1 1 1 1 1 1 1 1 1 1 1 1 1 1 1 1 1 1 1 1 1 1 1 1 1 1 1 1 1 1 1 1 1 1 1 1 1 1 1 1 1 1 1 1 1 1 1 1 1 1 1 1 1 1 1 1 1 1 1 1 1 1 1 1 1 1 1 1 1 1 1 1 1 1 1 1 1 1 1 1 1 1 1 1 1 1 1 1 1 1 1 1 1 1 1 1 1 1 1 1 1 1 1 1 1 1 1 1 1 1 1 1 1 1 1 1 1 1 1 1 1 1 1 1 1 1 1 1 1 1 1 1 1 1 1 1 1 1 1 1 1 1 1 1 1 1 1 1 1 1 1 1 1 1 1 1 1 1 1 1 1 1 1 1 1 1 1 1 1 1 1 1 1 1 1 1 1 1 1 1 1 1 1 1 1 1 1 1 1 1 1 1 1 1 1 1 1 1 1 1 1 1 1 1 1 1 1 1 1 1 1 1 1 1 1 1 1 1 1 1 1 1 1 1 1 1 1 1 1 1 1 1 1 1 1 1 1 1 1 1 1 1 1 1 1 1 1 1 1 1 1 1 1 1 1 1 1 1 1 1 1 1 1 1 1 1 1 1 1 1 1 1 1 1 1 1 1 1 1 1 1 1 1 1 1 1 1 1 1 1 1 1 1 1 1 1 1 1 1 1 1 1 1 1 1 1 1 1 1 1 1 1 1 1 1 1 1 1 1 1 1 1 1 1 1 1 1 1 1 1 1 1 1 1 1 1 1 1 1 1 1 1 1 1 1 1 1 1 1 1 1 1 1 1 1 1 1 1 1 1 1 1 1 1 1 1 1 1 1 1 1 1 1 1 1 1 1 1 1 1 1 1 1 1 1 1 1 1 1 1 1 1 1 1 1 1 1 1 1 1 1 1 1 1 1 1 1 1 1 1 1 1 1 1 1 1 1 1 1 0.5 0.5 0.5 0.5 0.5 0.5 0.5 0.5 0.5 0.5 0.5 0.5 0.205588 0.794412 0.25677 0.7432300000000001 0.5 0.5 0.5 0.5 0.5 0.5 0.5 0.5 0.5 0.5 0.5 0.5 0.5 0.5 0.5 0.5 0.5 0.5 0.5 0.5 0.5 0.5 0.5 0.5 0.5 0.5 0.5 0.5 0.5 0.5 0.5 0.5 0.5 0.5 0.5 0.5 0.5 0.5 0.5 0.5 0.5 0.5 0.5 0.5 0.5 0.5 0.5 0.5 0.5 0.5 0.5 0.5 0.5 0.5 0.5 0.5 0.5 0.5 0.5 0.5 0.187344 0.812656 0.763511 0.23648899999999995 0.627043 0.372957 0.745268 0.25473199999999996 0.5 0.5 0.5 0.5 0.5 0.5 0.5 0.5 0.5 0.5 0.5 0.5 0.5 0.5 0.5 0.5 0.5 0.5 0.5 0.5 0.5 0.5 0.5 0.5 0.5 0.5 0.5 0.5 0.5 0.5 0.5 0.5 0.5 0.5 0.5 0.5 0.5 0.5 0.5 0.5 0.5 0.5 0.5 0.5 0.5 0.5 0.5 0.5 0.603837 0.39616300000000004 0.828156 0.171844 0.760045 0.23995500000000003 0.948211 0.051788999999999974 0.5 0.5 0.5 0.5 0.5 0.5 0.5 0.5 0.5 0.5 0.5 0.5 0.5 0.5 0.5 0.5 0.5 0.5 0.5 0.5 0.5 0.5 0.5 0.5 0.5 0.5 0.5 0.5 0.5 0.5 0.5 0.5 0.107027 0.892973 0.378935 0.621065 0.225177 0.774823 0.461947 0.538053 0.5 0.5 0.5 0.5 0.5 0.5 0.5 0.5 0.5 0.5 0.5 0.5 0.5 0.5 0.5 0.5 0.5 0.5 0.5 0.5 0.5 0.5 0.5 0.5 0.5 0.5 0.5 0.5 0.5 0.5 0.5 0.5 0.5 0.5 0.5 0.5 0.5 0.5 0.5 0.5 0.5 0.5 0.5 0.5 0.5 0.5 0.5 0.5 0.5 0.5 0.5 0.5 0.5 0.5 0.5 0.5 0.5 0.5 0.5 0.5 0.5 0.5 0.5 0.5 0.5 0.5 0.5 0.5 0.5 0.5 0.5 0.5 0.5 0.5 0.5 0.5 0.5 0.5 0.5 0.5 0.5 0.5 0.5 0.5 0.5 0.5 0.5 0.5 0.5 0.5 0.5 0.5 0.5 0.5 0.5 0.5 0.5 0.5 0.5 0.5 0.5 0.5 0.5 0.5 0.5 0.5 0.5 0.5 0.5 0.5 0.5 0.5 0.5 0.5 0.5 0.5 0.5 0.5 0.5 0.5 0.5 0.5 0.5 0.5 0.5 0.5 0.5 0.5 0.5 0.5 0.5 0.5 0.5 0.5 0.5 0.5 0.5 0.5 0.5 0.5 0.5 0.5 0.5 0.5 0.5 0.5 0.5 0.5 0.5 0.5 0.5 0.5 0.5 0.5 0.5 0.5 0.5 0.5 0.5 0.5 0.5 0.5 0.5 0.5 0.5 0.5 0.5 0.5 0.5 0.5 0.5 0.5 0.5 0.5 0.5 0.5 0.5 0.5 0.5 0.5 0.5 0.5 0.5 0.5 0.5 0.5 0.5 0.5 0.5 0.5 0.5 0.5 0.5 0.5 0.5 0.5 0.5 0.5 0.5 0.5 0.5 0.5 0.5 0.5 0.5 0.5 0.5 0.5 0.5 0.5 0.5 0.5 0.5 0.5 0.5 0.5 0.517346 0.482654 0.917381 0.082619 0.0376852 0.9623148 0.803799 0.19620099999999996 0.5 0.5 0.5 0.5 0.5 0.5 0.5 0.5 0.5 0.5 0.5 0.5 0.5 0.5 0.5 0.5 0.5 0.5 0.5 0.5 0.5 0.5 0.5 0.5 0.5 0.5 0.5 0.5 0.5 0.5 0.5 0.5 0.5 0.5 0.5 0.5 0.5 0.5 0.5 0.5 0.5 0.5 0.5 0.5 0.5 0.5 0.5 0.5 0.5 0.5 0.5 0.5 0.5 0.5 0.5 0.5 0.281285 0.718715 0.522509 0.477491 0.5 0.5 0.5 0.5 0.5 0.5 0.5 0.5 0.5 0.5 0.5 0.5 0.5 0.5 0.5 0.5 0.518327 0.481673 0.286278 0.713722 0.93873 0.06127000000000005 0.70103 0.29896999999999996 0.5 0.5 0.5 0.5 0.5 0.5 0.5 0.5 0.0857698 0.9142302 0.689356 0.31064400000000003 0.596098 0.403902 0.599152 0.400848 0.5 0.5 0.5 0.5 0.5 0.5 0.5 0.5 0.5 0.5 0.5 0.5 0.5 0.5 0.5 0.5 0.5 0.5 0.5 0.5 0.5 0.5 0.5 0.5 0.363182 0.636818 0.846579 0.15342100000000003 0.879283 0.12071699999999996 0.0642125 0.9357875 0.5 0.5 0.5 0.5 0.5 0.5 0.5 0.5 0.5 0.5 0.5 0.5 0.5 0.5 0.5 0.5 0.5 0.5 0.5 0.5 0.5 0.5 0.5 0.5 0.5 0.5 0.5 0.5 0.5 0.5 0.5 0.5 0.5 0.5 0.5 0.5 0.5 0.5 0.5 0.5 0.5 0.5 0.5 0.5 0.5 0.5 0.5 0.5 0.564191 0.435809 0.343508 0.6564920000000001 0.0822165 0.9177835 0.563028 0.436972 0.5 0.5 0.5 0.5 0.5 0.5 0.5 0.5 0.5 0.5 0.5 0.5 0.5 0.5 0.5 0.5 0.5 0.5 0.5 0.5 0.5 0.5 0.5 0.5 0.5 0.5 0.5 0.5 0.5 0.5 0.5 0.5 0.5 0.5 0.5 0.5 0.5 0.5 0.5 0.5 0.5 0.5 0.5 0.5 0.5 0.5 0.5 0.5 0.5 0.5 0.5 0.5 0.5 0.5 0.5 0.5 0.5 0.5 0.5 0.5 0.5 0.5 0.5 0.5 0.5 0.5 0.5 0.5 0.5 0.5 0.5 0.5 0.5 0.5 0.5 0.5 0.5 0.5 0.5 0.5 0.5 0.5 0.5 0.5 0.718334 0.28166599999999997 0.704113 0.295887 0.482483 0.517517 0.57662 0.42338 0.5 0.5 0.5 0.5 0.5 0.5 0.5 0.5 0.5 0.5 0.5 0.5 0.5 0.5 0.5 0.5 0.5 0.5 0.5 0.5 0.5 0.5 0.5 0.5 0.5 0.5 0.5 0.5 0.5 0.5 0.5 0.5 0.819729 0.18027099999999996 0.115209 0.884791 0.263835 0.736165 0.644559 0.355441 0.5 0.5 0.5 0.5 0.5 0.5 0.5 0.5 0.5 0.5 0.5 0.5 0.5 0.5 0.5 0.5 0.5 0.5 0.5 0.5 0.236574 0.7634259999999999 0.438328 0.561672 0.537953 0.462047 0.333106 0.666894 0.5 0.5 0.5 0.5 0.5 0.5 0.5 0.5 0.246161 0.753839 0.135429 0.864571 0.325809 0.674191 0.211327 0.788673 0.441018 0.558982 0.475163 0.524837 0.599718 0.400282 0.937708 0.062292000000000014 0.5 0.5 0.5 0.5 0.5 0.5 0.5 0.5 0.415075 0.5849249999999999 0.358761 0.641239 0.762777 0.23722299999999996 0.615055 0.384945 0.5 0.5 0.5 0.5 0.5 0.5 0.5 0.5 0.5 0.5 0.5 0.5 0.5 0.5 0.5 0.5 0.590335 0.40966499999999995 0.898225 0.10177499999999995 0.0906639 0.9093361 0.916145 0.08385500000000001 0.5 0.5 0.5 0.5 0.5 0.5 0.5 0.5 0.5 0.5 0.5 0.5 0.5 0.5 0.5 0.5 0.5 0.5 0.5 0.5 0.5 0.5 0.5 0.5 0.5 0.5 0.5 0.5 0.5 0.5 0.5 0.5 0.5 0.5 0.5 0.5 0.5 0.5 0.5 0.5 0.332835 0.667165 0.985054 0.014946000000000015 0.5 0.5 0.5 0.5 0.5 0.5 0.5 0.5 0.5 0.5 0.5 0.5 0.5 0.5 0.5 0.5 0.5 0.5 0.5 0.5 0.5 0.5 0.5 0.5 0.5 0.5 0.5 0.5 0.5 0.5 0.5 0.5 0.5 0.5 0.5 0.5 0.5 0.5 0.5 0.5 0.5 0.5 0.5 0.5 0.5 0.5 0.5 0.5 0.5 0.5 0.5 0.5 0.5 0.5 0.5 0.5 0.5 0.5 0.5 0.5 0.5 0.5 0.5 0.5 0.5 0.5 0.5 0.5 0.5 0.5 0.5 0.5 0.5 0.5 0.5 0.5 0.5 0.5 0.5 0.5 0.5 0.5 0.5 0.5 0.5 0.5 0.5 0.5 0.5 0.5 0.5 0.5 0.5 0.5 0.5 0.5 0.5 0.5 0.5 0.5 0.5 0.5 0.5 0.5 0.5 0.5 0.5 0.5 0.5 0.5 0.5 0.5 0.5 0.5 0.5 0.5 0.5 0.5 0.5 0.5 0.5 0.5 0.5 0.5 0.5 0.5 0.5 0.5 0.5 0.5 0.5 0.5 0.5 0.5 0.5 0.5 0.5 0.5 0.5 0.5 0.5 0.5 0.5 0.5 0.5 0.5 0.5 0.5 0.718109 0.281891 0.09844 0.90156 0.886972 0.11302800000000002 0.158399 0.841601 0.5 0.5 0.5 0.5 0.5 0.5 0.5 0.5 0.5 0.5 0.5 0.5 0.5 0.5 0.5 0.5 0.5 0.5 0.5 0.5 0.5 0.5 0.5 0.5 0.5 0.5 0.5 0.5 0.5 0.5 0.5 0.5 0.5 0.5 0.5 0.5 0.5 0.5 0.5 0.5 0.5 0.5 0.5 0.5 0.5 0.5 0.5 0.5 0.5 0.5 0.5 0.5 0.5 0.5 0.5 0.5 0.5 0.5 0.5 0.5 0.5 0.5 0.5 0.5 0.5 0.5 0.5 0.5 0.5 0.5 0.5 0.5 0.5 0.5 0.5 0.5 0.5 0.5 0.5 0.5 0.5 0.5 0.5 0.5 0.5 0.5 0.5 0.5 0.5 0.5 0.5 0.5 0.5 0.5 0.5 0.5 0.5 0.5 0.5 0.5 0.5 0.5 0.5 0.5 0.5 0.5 0.5 0.5 0.5 0.5 0.5 0.5 0.5 0.5 0.5 0.5 0.897614 0.10238599999999998 0.754233 0.24576699999999996 0.841353 0.15864699999999998 0.0532591 0.9467409 0.5 0.5 0.5 0.5 0.5 0.5 0.5 0.5 0.960465 0.03953499999999999 0.586729 0.41327100000000005 0.0190822 0.9809178 0.718129 0.281871 0.5 0.5 0.5 0.5 0.5 0.5 0.5 0.5 0.5 0.5 0.5 0.5 0.5 0.5 0.5 0.5 0.5 0.5 0.5 0.5 0.5 0.5 0.5 0.5 0.5 0.5 0.5 0.5 0.5 0.5 0.5 0.5 0.5 0.5 0.5 0.5 0.5 0.5 0.5 0.5 0.5 0.5 0.5 0.5 0.5 0.5 0.5 0.5 0.5 0.5 0.5 0.5 0.5 0.5 0.5 0.5 0.5 0.5 0.5 0.5 0.5 0.5 0.5 0.5 0.5 0.5 0.5 0.5 0.5 0.5 0.5 0.5 0.5 0.5 0.5 0.5 0.5 0.5 0.5 0.5 0.5 0.5 0.5 0.5 0.5 0.5 0.5 0.5 0.5 0.5 0.5 0.5 0.5 0.5 0.5 0.5 0.5 0.5 0.5 0.5 0.5 0.5 0.5 0.5 0.5 0.5 0.5 0.5 0.5 0.5 0.5 0.5 0.5 0.5 0.5 0.5 0.5 0.5 0.5 0.5 0.5 0.5 0.5 0.5 0.5 0.5 0.5 0.5 0.5 0.5 0.5 0.5 0.251872 0.748128 0.669666 0.330334 0.920372 0.07962800000000003 0.926344 0.07365600000000005 0.5 0.5 0.5 0.5 0.5 0.5 0.5 0.5 0.5 0.5 0.5 0.5 0.5 0.5 0.5 0.5 0.5 0.5 0.5 0.5 0.5 0.5 0.5 0.5 0.5 0.5 0.5 0.5 0.5 0.5 0.5 0.5 0.5 0.5 0.5 0.5 0.5 0.5 0.5 0.5 0.5 0.5 0.5 0.5 0.5 0.5 0.5 0.5 0.5 0.5 0.5 0.5 0.5 0.5 0.5 0.5 0.5 0.5 0.5 0.5 0.5 0.5 0.5 0.5 0.767171 0.23282899999999995 0.300025 0.699975 0.418033 0.581967 0.449424 0.550576 0.5 0.5 0.5 0.5 0.5 0.5 0.5 0.5 0.5 0.5 0.5 0.5 0.5 0.5 0.5 0.5 0.501245 0.49875499999999995 0.392274 0.607726 0.5 0.5 0.5 0.5 0.5 0.5 0.5 0.5 0.5 0.5 0.5 0.5 0.5 0.5 0.5 0.5 0.5 0.5 0.5 0.5 0.5 0.5 0.5 0.5 0.5 0.5 0.5 0.5 0.5 0.5 0.5 0.5 0.5 0.5 0.5 0.5 0.5 0.5 0.5 0.5 0.5 0.5 0.5 0.5 0.5 0.5 0.5 0.5 0.5 0.5 0.5 0.5 0.5 0.5 0.5 0.5 0.5 0.5 0.5 0.5 0.5 0.5 0.5 0.5 0.5 0.5 0.5 0.5 0.5 0.5 0.5 0.5 0.5 0.5 0.5 0.5 0.5 0.5 0.5 0.5 0.5 0.5 0.5 0.5 0.5 0.5 0.5 0.5 0.5 0.5 0.5 0.5 0.5 0.5 0.5 0.5 0.5 0.5 0.5 0.5 0.5 0.5 0.5 0.5 0.5 0.5 0.5 0.5 0.5 0.5 0.5 0.5 0.5 0.5 0.5 0.5 0.5 0.5 0.5 0.5 0.5 0.5 0.5 0.5 0.5 0.5 0.5 0.5 0.5 0.5 0.5 0.5 0.5 0.5 0.5 0.5 0.5 0.5 0.5 0.5 0.5 0.5 0.5 0.5 0.5 0.5 0.5 0.5 0.5 0.5 0.5 0.5 0.5 0.5 0.5 0.5 0.5 0.5 0.5 0.5 0.5 0.5 0.5 0.5 0.5 0.5 0.5 0.5 0.5 0.5 0.5 0.5 0.5 0.5 0.5 0.5 0.5 0.5 0.5 0.5 0.5 0.5 0.5 0.5 0.5 0.5 0.5 0.5 0.5 0.5 0.5 0.5 0.5 0.5 0.5 0.5 0.5 0.5 0.5 0.5 0.5 0.5 0.5 0.5 0.5 0.5 0.5 0.5 0.5 0.5 0.5 0.5 0.5 0.5 0.5 0.5 0.5 0.5 0.5 0.5 0.5 0.5 0.5 0.5 0.5 0.5 0.5 0.5 0.5 0.5 0.5 0.5 0.5 0.5 0.5 0.5 0.5 0.5 0.5 0.5 0.5 0.5 0.5 0.5 0.5 0.5 0.5 0.5 0.5 0.5 0.5 0.5 0.5 0.5 0.5 0.5 0.5 0.5 0.5 0.5 0.166442 0.833558 0.15989 0.84011 0.5 0.5 0.5 0.5 0.5 0.5 0.5 0.5 0.5 0.5 0.5 0.5 0.5 0.5 0.5 0.5 0.5 0.5 0.5 0.5 0.5 0.5 0.5 0.5 0.5 0.5 0.5 0.5 0.5 0.5 0.5 0.5 0.5 0.5 0.5 0.5 0.5 0.5 0.5 0.5 0.5 0.5 0.5 0.5 0.5 0.5 0.5 0.5 0.862772 0.13722800000000002 0.952319 0.04768099999999997 0.231811 0.768189 0.00202266 0.99797734 0.5 0.5 0.5 0.5 0.5 0.5 0.5 0.5 0.5 0.5 0.5 0.5 0.5 0.5 0.5 0.5 0.300532 0.699468 0.69311 0.30689 0.0832606 0.9167394 0.958558 0.04144199999999998 0.5 0.5 0.5 0.5 0.5 0.5 0.5 0.5 0.0914519 0.9085481 0.802857 0.19714299999999996 0.256644 0.743356 0.911775 0.088225 0.5 0.5 0.5 0.5 0.5 0.5 0.5 0.5 0.5 0.5 0.5 0.5 0.5 0.5 0.5 0.5 0.5 0.5 0.5 0.5 0.5 0.5 0.5 0.5 0.5 0.5 0.5 0.5 0.5 0.5 0.5 0.5 0.5 0.5 0.5 0.5 0.5 0.5 0.5 0.5 0.5 0.5 0.5 0.5 0.5 0.5 0.5 0.5 0.5 0.5 0.5 0.5 0.5 0.5 0.5 0.5 0.5 0.5 0.5 0.5 0.5 0.5 0.5 0.5 0.5 0.5 0.5 0.5 0.5 0.5 0.5 0.5 0.5 0.5 0.5 0.5 0.5 0.5 0.5 0.5 0.5 0.5 0.5 0.5 0.5 0.5 0.5 0.5 0.5 0.5 0.5 0.5 0.5 0.5 0.5 0.5 0.5 0.5 0.5 0.5 0.27404 0.7259599999999999 0.0389804 0.9610196 0.675674 0.324326 0.144409 0.855591 0.5 0.5 0.5 0.5 0.5 0.5 0.5 0.5 0.5 0.5 0.5 0.5 0.5 0.5 0.5 0.5 0.5 0.5 0.5 0.5 0.5 0.5 0.5 0.5 0.8929 0.10709999999999997 0.268659 0.731341 0.762474 0.23752600000000001 0.602214 0.397786 0.0578095 0.9421905 0.525094 0.47490600000000005 0.547311 0.452689 0.0292589 0.9707411 0.5 0.5 0.5 0.5 0.5 0.5 0.5 0.5 0.5 0.5 0.5 0.5 0.5 0.5 0.5 0.5 0.5 0.5 0.5 0.5 0.399358 0.600642 0.097834 0.902166 0.114126 0.885874 0.687549 0.31245100000000003 0.5 0.5 0.5 0.5 0.5 0.5 0.5 0.5 0.5 0.5 0.5 0.5 0.5 0.5 0.5 0.5 0.5 0.5 0.5 0.5 0.5 0.5 0.5 0.5 0.5 0.5 0.5 0.5 0.5 0.5 0.5 0.5 0.5 0.5 0.5 0.5 0.5 0.5 0.5 0.5 0.5 0.5 0.5 0.5 0.5 0.5 0.5 0.5 0.5 0.5 0.5 0.5 0.5 0.5 0.5 0.5 0.5 0.5 0.5 0.5 0.5 0.5 0.5 0.5 0.5 0.5 0.5 0.5 0.5 0.5 0.5 0.5 0.496602 0.503398 0.611997 0.388003 0.572266 0.42773399999999995 0.355367 0.644633 0.5 0.5 0.5 0.5 0.5 0.5 0.5 0.5 0.5 0.5 0.5 0.5 0.5 0.5 0.5 0.5 0.5 0.5 0.5 0.5 0.5 0.5 0.5 0.5 0.5 0.5 0.5 0.5 0.5 0.5 0.5 0.5 0.5 0.5 0.5 0.5 0.5 0.5 0.5 0.5 0.5 0.5 0.5 0.5 0.5 0.5 0.5 0.5 0.5 0.5 0.5 0.5 0.5 0.5 0.5 0.5 0.5 0.5 0.5 0.5 0.5 0.5 0.5 0.5 0.5 0.5 0.5 0.5 0.5 0.5 0.5 0.5 0.5 0.5 0.5 0.5 0.5 0.5 0.5 0.5 0.5 0.5 0.5 0.5 0.5 0.5 0.5 0.5 0.5 0.5 0.5 0.5 0.5 0.5 0.5 0.5 0.5 0.5 0.5 0.5 0.5 0.5 0.5 0.5 0.5 0.5 0.5 0.5 0.5 0.5 0.5 0.5 0.5 0.5 0.5 0.5 0.5 0.5 0.5 0.5 0.5 0.5 0.5 0.5 0.5 0.5 0.5 0.5 0.5 0.5 0.5 0.5 0.5 0.5 0.5 0.5 0.5 0.5 0.5 0.5 0.5 0.5 0.5 0.5 0.5 0.5 0.5 0.5 0.5 0.5 0.5 0.5 0.5 0.5 0.5 0.5 0.5 0.5 0.5 0.5 0.5 0.5 0.5 0.5 0.5 0.5 0.5 0.5 0.5 0.5 0.5 0.5
-1 2 0
1 -2 0
-2 3 0
2 -3 0
-3 -4 0
3 4 0
-4 -296 5 0
-4 296 -5 0
4 -297 5 0
4 297 -5 0
-5 6 0
5 -6 0
-6 7 0
6 -7 0
-7 -8 0
7 8 0
-8 9 0
8 -9 0
-9 -10 0
9 10 0
-10 11 0
10 -11 0
-11 -12 0
11 12 0
-12 -13 0
12 13 0
-13 14 0
13 -14 0
-14 15 0
14 -15 0
-15 16 0
15 -16 0
-16 17 0
16 -17 0
-1 18 0
1 -18 0
-18 -2 -19 0
-18 2 -19 0
18 -2 19 0
18 2 -19 0
-19 -3 -328 20 0
-19 -3 328 -20 0
-19 3 -329 20 0
-19 3 329 -20 0
19 -3 -330 20 0
19 -3 330 -20 0
19 3 -331 20 0
19 3 331 -20 0
-20 -4 21 0
-20 4 21 0
20 -4 21 0
20 4 -21 0
-21 -5 -22 0
-21 5 -22 0
21 -5 22 0
21 5 -22 0
-22 -6 23 0
-22 6 23 0
22 -6 23 0
22 6 -23 0
-23 -7 24 0
-23 7 24 0
23 -7 -24 0
23 7 -24 0
-24 -8 -25 0
-24 8 -25 0
24 -8 25 0
24 8 -25 0
-25 -9 26 0
-25 9 -26 0
25 -9 26 0
25 9 26 0
-26 -10 -356 27 0
-26 -10 356 -27 0
-26 10 -357 27 0
-26 10 357 -27 0
26 -10 -358 27 0
26 -10 358 -27 0
26 10 -359 27 0
26 10 359 -27 0
-27 -11 -28 0
-27 11 28 0
27 -11 28 0
27 11 -28 0
-28 -12 -29 0
-28 12 -29 0
28 -12 29 0
28 12 -29 0
-29 -13 -30 0
-29 13 -30 0
29 -13 30 0
29 13 -30 0
-30 -14 31 0
-30 14 -31 0
30 -14 -31 0
30 14 31 0
-31 -15 -376 32 0
-31 -15 376 -32 0
-31 15 -377 32 0
-31 15 377 -32 0
31 -15 -378 32 0
31 -15 378 -32 0
31 15 -379 32 0
31 15 379 -32 0
-32 -16 -33 0
-32 16 -33 0
32 -16 -33 0
32 16 33 0
-33 -17 -34 0
-33 17 34 0
33 -17 -34 0
33 17 -34 0
-18 -35 0
18 35 0
-35 -19 -36 0
-35 19 -36 0
35 -19 36 0
35 19 36 0
-36 -20 37 0
-36 20 -37 0
36 -20 37 0
36 20 -37 0
-37 -21 38 0
-37 21 -38 0
37 -21 -38 0
37 21 -38 0
-38 -22 -39 0
-38 22 39 0
38 -22 -39 0
38 22 -39 0
-39 -23 -40 0
-39 23 -40 0
39 -23 40 0
39 23 -40 0
-40 -24 41 0
-40 24 -41 0
40 -24 41 0
40 24 41 0
-41 -25 42 0
-41 25 -42 0
41 -25 -42 0
41 25 -42 0
-42 -26 -43 0
-42 26 43 0
42 -26 -43 0
42 26 43 0
-43 -27 -44 0
-43 27 -44 0
43 -27 44 0
43 27 44 0
-44 -28 45 0
-44 28 45 0
44 -28 45 0
44 28 -45 0
-45 -29 46 0
-45 29 46 0
45 -29 -46 0
45 29 -46 0
-46 -30 47 0
-46 30 47 0
46 -30 -47 0
46 30 -47 0
-47 -31 48 0
-47 31 48 0
47 -31 48 0
47 31 -48 0
-48 -32 49 0
-48 32 -49 0
48 -32 -49 0
48 32 49 0
-49 -33 50 0
-49 33 50 0
49 -33 -50 0
49 33 -50 0
-50 -34 -51 0
-50 34 51 0
50 -34 51 0
50 34 51 0
-35 -52 0
35 52 0
-52 -36 53 0
-52 36 -53 0
52 -36 53 0
52 36 53 0
-53 -37 -54 0
-53 37 54 0
53 -37 54 0
53 37 -54 0
-54 -38 55 0
-54 38 55 0
54 -38 55 0
54 38 -55 0
-55 -39 -56 0
-55 39 56 0
55 -39 56 0
55 39 56 0
-56 -40 57 0
-56 40 -57 0
56 -40 57 0
56 40 -57 0
-57 -41 -58 0
-57 41 58 0
57 -41 58 0
57 41 58 0
-58 -42 -59 0
-58 42 59 0
58 -42 -59 0
58 42 59 0
-59 -43 60 0
-59 43 60 0
59 -43 -60 0
59 43 -60 0
-60 -44 -488 61 0
-60 -44 488 -61 0
-60 44 -489 61 0
-60 44 489 -61 0
60 -44 -490 61 0
60 -44 490 -61 0
60 44 -491 61 0
60 44 491 -61 0
-61 -45 62 0
-61 45 62 0
61 -45 -62 0
61 45 62 0
-62 -46 -63 0
-62 46 63 0
62 -46 -63 0
62 46 -63 0
-63 -47 64 0
-63 47 64 0
63 -47 -64 0
63 47 -64 0
-64 -48 65 0
-64 48 -65 0
64 -48 65 0
64 48 65 0
-65 -49 66 0
-65 49 -66 0
65 -49 66 0
65 49 66 0
-66 -50 67 0
-66 50 -67 0
66 -50 -67 0
66 50 67 0
-67 -51 68 0
-67 51 68 0
67 -51 -68 0
67 51 -68 0
-52 -520 69 0
-52 520 -69 0
52 -521 69 0
52 521 -69 0
-69 -53 -70 0
-69 53 -70 0
69 -53 70 0
69 53 70 0
-70 -54 71 0
-70 54 -71 0
70 -54 71 0
70 54 -71 0
-71 -55 -530 72 0
-71 -55 530 -72 0
-71 55 -531 72 0
-71 55 531 -72 0
71 -55 -532 72 0
71 -55 532 -72 0
71 55 -533 72 0
71 55 533 -72 0
-72 -56 73 0
-72 56 73 0
72 -56 73 0
72 56 -73 0
-73 -57 -538 74 0
-73 -57 538 -74 0
-73 57 -539 74 0
-73 57 539 -74 0
73 -57 -540 74 0
73 -57 540 -74 0
73 57 -541 74 0
73 57 541 -74 0
-74 -58 -75 0
-74 58 75 0
74 -58 75 0
74 58 -75 0
-75 -59 76 0
-75 59 76 0
75 -59 76 0
75 59 -76 0
-76 -60 -77 0
-76 60 -77 0
76 -60 77 0
76 60 -77 0
-77 -61 -554 78 0
-77 -61 554 -78 0
-77 61 -555 78 0
-77 61 555 -78 0
77 -61 -556 78 0
77 -61 556 -78 0
77 61 -557 78 0
77 61 557 -78 0
-78 -62 79 0
-78 62 -79 0
78 -62 79 0
78 62 79 0
-79 -63 -80 0
-79 63 80 0
79 -63 80 0
79 63 80 0
-80 -64 81 0
-80 64 -81 0
80 -64 -81 0
80 64 -81 0
-81 -65 82 0
-81 65 82 0
81 -65 -82 0
81 65 -82 0
-82 -66 83 0
-82 66 -83 0
82 -66 -83 0
82 66 83 0
-83 -67 84 0
-83 67 -84 0
83 -67 -84 0
83 67 -84 0
-84 -68 -582 85 0
-84 -68 582 -85 0
-84 68 -583 85 0
-84 68 583 -85 0
84 -68 -584 85 0
84 -68 584 -85 0
84 68 -585 85 0
84 68 585 -85 0
-69 -86 0
69 86 0
-86 -70 -87 0
-86 70 -87 0
86 -70 87 0
86 70 87 0
-87 -71 -88 0
-87 71 88 0
87 -71 88 0
87 71 88 0
-88 -72 -89 0
-88 72 89 0
88 -72 -89 0
88 72 -89 0
-89 -73 -90 0
-89 73 -90 0
89 -73 90 0
89 73 90 0
-90 -74 91 0
-90 74 91 0
90 -74 91 0
90 74 -91 0
-91 -75 -92 0
-91 75 92 0
91 -75 -92 0
91 75 -92 0
-92 -76 -93 0
-92 76 -93 0
92 -76 93 0
92 76 93 0
-93 -77 94 0
-93 77 -94 0
93 -77 94 0
93 77 -94 0
-94 -78 -95 0
-94 78 -95 0
94 -78 95 0
94 78 -95 0
-95 -79 -96 0
-95 79 -96 0
95 -79 96 0
95 79 96 0
-96 -80 -628 97 0
-96 -80 628 -97 0
-96 80 -629 97 0
-96 80 629 -97 0
96 -80 -630 97 0
96 -80 630 -97 0
96 80 -631 97 0
96 80 631 -97 0
-97 -81 98 0
-97 81 -98 0
97 -81 -98 0
97 81 98 0
-98 -82 99 0
-98 82 -99 0
98 -82 99 0
98 82 -99 0
-99 -83 100 0
-99 83 100 0
99 -83 -100 0
99 83 100 0
-100 -84 101 0
-100 84 101 0
100 -84 -101 0
100 84 -101 0
-101 -85 -648 102 0
-101 -85 648 -102 0
-101 85 -649 102 0
-101 85 649 -102 0
101 -85 -650 102 0
101 -85 650 -102 0
101 85 -651 102 0
101 85 651 -102 0
-86 -103 0
86 103 0
-103 -87 -104 0
-103 87 -104 0
103 -87 104 0
103 87 -104 0
-104 -88 -105 0
-104 88 -105 0
104 -88 105 0
104 88 105 0
-105 -89 -662 106 0
-105 -89 662 -106 0
-105 89 -663 106 0
-105 89 663 -106 0
105 -89 -664 106 0
105 -89 664 -106 0
105 89 -665 106 0
105 89 665 -106 0
-106 -90 -107 0
-106 90 107 0
106 -90 107 0
106 90 -107 0
-107 -91 -670 108 0
-107 -91 670 -108 0
-107 91 -671 108 0
-107 91 671 -108 0
107 -91 -672 108 0
107 -91 672 -108 0
107 91 -673 108 0
107 91 673 -108 0
-108 -92 -674 109 0
-108 -92 674 -109 0
-108 92 -675 109 0
-108 92 675 -109 0
108 -92 -676 109 0
108 -92 676 -109 0
108 92 -677 109 0
108 92 677 -109 0
-109 -93 110 0
-109 93 -110 0
109 -93 -110 0
109 93 -110 0
-110 -94 -682 111 0
-110 -94 682 -111 0
-110 94 -683 111 0
-110 94 683 -111 0
110 -94 -684 111 0
110 -94 684 -111 0
110 94 -685 111 0
110 94 685 -111 0
-111 -95 112 0
-111 95 112 0
111 -95 -112 0
111 95 -112 0
-112 -96 -113 0
-112 96 -113 0
112 -96 113 0
112 96 113 0
-113 -97 -694 114 0
-113 -97 694 -114 0
-113 97 -695 114 0
-113 97 695 -114 0
113 -97 -696 114 0
113 -97 696 -114 0
113 97 -697 114 0
113 97 697 -114 0
-114 -98 115 0
-114 98 115 0
114 -98 -115 0
114 98 115 0
-115 -99 116 0
-115 99 -116 0
115 -99 -116 0
115 99 -116 0
-116 -100 117 0
-116 100 117 0
116 -100 -117 0
116 100 117 0
-117 -101 -118 0
-117 101 118 0
117 -101 -118 0
117 101 -118 0
-118 -102 -119 0
-118 102 -119 0
118 -102 119 0
118 102 -119 0
-103 -718 120 0
-103 718 -120 0
103 -719 120 0
103 719 -120 0
-120 -104 -121 0
-120 104 121 0
120 -104 121 0
120 104 -121 0
-121 -105 -122 0
-121 105 -122 0
121 -105 -122 0
121 105 122 0
-122 -106 123 0
-122 106 -123 0
122 -106 -123 0
122 106 -123 0
-123 -107 -124 0
-123 107 -124 0
123 -107 124 0
123 107 124 0
-124 -108 -125 0
-124 108 125 0
124 -108 -125 0
124 108 125 0
-125 -109 -126 0
-125 109 126 0
125 -109 126 0
125 109 -126 0
-126 -110 127 0
-126 110 -127 0
126 -110 -127 0
126 110 -127 0
-127 -111 128 0
-127 111 128 0
127 -111 128 0
127 111 -128 0
-128 -112 -129 0
-128 112 -129 0
128 -112 -129 0
128 112 129 0
-129 -113 -130 0
-129 113 -130 0
129 -113 130 0
129 113 -130 0
-130 -114 131 0
-130 114 -131 0
130 -114 -131 0
130 114 -131 0
-131 -115 132 0
-131 115 132 0
131 -115 132 0
131 115 -132 0
-132 -116 133 0
-132 116 -133 0
132 -116 -133 0
132 116 133 0
-133 -117 134 0
-133 117 -134 0
133 -117 134 0
133 117 134 0
-134 -118 -135 0
-134 118 135 0
134 -118 -135 0
134 118 -135 0
-135 -119 136 0
-135 119 136 0
135 -119 -136 0
135 119 -136 0
-120 137 0
120 -137 0
-137 -121 -138 0
-137 121 138 0
137 -121 138 0
137 121 -138 0
-138 -122 139 0
-138 122 139 0
138 -122 -139 0
138 122 -139 0
-139 -123 -794 140 0
-139 -123 794 -140 0
-139 123 -795 140 0
-139 123 795 -140 0
139 -123 -796 140 0
139 -123 796 -140 0
139 123 -797 140 0
139 123 797 -140 0
-140 -124 -141 0
-140 124 -141 0
140 -124 -141 0
140 124 141 0
-141 -125 142 0
-141 125 142 0
141 -125 -142 0
141 125 142 0
-142 -126 -143 0
-142 126 143 0
142 -126 143 0
142 126 143 0
-143 -127 144 0
-143 127 144 0
143 -127 -144 0
143 127 -144 0
-144 -128 145 0
-144 128 145 0
144 -128 -145 0
144 128 145 0
-145 -129 -146 0
-145 129 -146 0
145 -129 -146 0
145 129 146 0
-146 -130 -147 0
-146 130 -147 0
146 -130 -147 0
146 130 147 0
-147 -131 148 0
-147 131 148 0
147 -131 148 0
147 131 -148 0
-148 -132 149 0
-148 132 -149 0
148 -132 149 0
148 132 -149 0
-149 -133 -150 0
-149 133 150 0
149 -133 150 0
149 133 -150 0
-150 -134 -151 0
-150 134 -151 0
150 -134 151 0
150 134 151 0
-151 -135 152 0
-151 135 152 0
151 -135 -152 0
151 135 152 0
-152 -136 -153 0
-152 136 153 0
152 -136 153 0
152 136 -153 0
-137 -154 0
137 154 0
-154 -138 155 0
-154 138 155 0
154 -138 -155 0
154 138 -155 0
-155 -139 -856 156 0
-155 -139 856 -156 0
-155 139 -857 156 0
-155 139 857 -156 0
155 -139 -858 156 0
155 -139 858 -156 0
155 139 -859 156 0
155 139 859 -156 0
-156 -140 -157 0
-156 140 157 0
156 -140 -157 0
156 140 157 0
-157 -141 -864 158 0
-157 -141 864 -158 0
-157 141 -865 158 0
-157 141 865 -158 0
157 -141 -866 158 0
157 -141 866 -158 0
157 141 -867 158 0
157 141 867 -158 0
-158 -142 -159 0
-158 142 -159 0
158 -142 159 0
158 142 159 0
-159 -143 -160 0
-159 143 -160 0
159 -143 160 0
159 143 160 0
-160 -144 -161 0
-160 144 161 0
160 -144 -161 0
160 144 -161 0
-161 -145 162 0
-161 145 -162 0
161 -145 162 0
161 145 162 0
-162 -146 -163 0
-162 146 -163 0
162 -146 163 0
162 146 163 0
-163 -147 164 0
-163 147 -164 0
163 -147 -164 0
163 147 -164 0
-164 -148 -165 0
-164 148 -165 0
164 -148 165 0
164 148 165 0
-165 -149 166 0
-165 149 166 0
165 -149 -166 0
165 149 -166 0
-166 -150 -167 0
-166 150 167 0
166 -150 167 0
166 150 167 0
-167 -151 -168 0
-167 151 -168 0
167 -151 -168 0
167 151 168 0
-168 -152 169 0
-168 152 169 0
168 -152 -169 0
168 152 -169 0
-169 -153 -170 0
-169 153 170 0
169 -153 170 0
169 153 -170 0
-154 171 0
154 -171 0
-171 -155 -172 0
-171 155 -172 0
171 -155 172 0
171 155 172 0
-172 -156 -173 0
-172 156 -173 0
172 -156 173 0
172 156 173 0
-173 -157 -174 0
-173 157 174 0
173 -157 174 0
173 157 -174 0
-174 -158 -175 0
-174 158 175 0
174 -158 -175 0
174 158 -175 0
-175 -159 -934 176 0
-175 -159 934 -176 0
-175 159 -935 176 0
-175 159 935 -176 0
175 -159 -936 176 0
175 -159 936 -176 0
175 159 -937 176 0
175 159 937 -176 0
-176 -160 177 0
-176 160 -177 0
176 -160 -177 0
176 160 177 0
-177 -161 -178 0
-177 161 178 0
177 -161 178 0
177 161 178 0
-178 -162 -179 0
-178 162 179 0
178 -162 -179 0
178 162 179 0
-179 -163 180 0
-179 163 -180 0
179 -163 -180 0
179 163 -180 0
-180 -164 181 0
-180 164 -181 0
180 -164 181 0
180 164 181 0
-181 -165 -182 0
-181 165 182 0
181 -165 182 0
181 165 182 0
-182 -166 183 0
-182 166 -183 0
182 -166 -183 0
182 166 -183 0
-183 -167 -184 0
-183 167 184 0
183 -167 -184 0
183 167 -184 0
-184 -168 -970 185 0
-184 -168 970 -185 0
-184 168 -971 185 0
-184 168 971 -185 0
184 -168 -972 185 0
184 -168 972 -185 0
184 168 -973 185 0
184 168 973 -185 0
-185 -169 186 0
-185 169 -186 0
185 -169 -186 0
185 169 186 0
-186 -170 187 0
-186 170 -187 0
186 -170 -187 0
186 170 187 0
-171 -982 188 0
-171 982 -188 0
171 -983 188 0
171 983 -188 0
-188 -172 189 0
-188 172 189 0
188 -172 189 0
188 172 -189 0
-189 -173 190 0
-189 173 -190 0
189 -173 190 0
189 173 190 0
-190 -174 191 0
-190 174 191 0
190 -174 -191 0
190 174 -191 0
-191 -175 -192 0
-191 175 -192 0
191 -175 192 0
191 175 192 0
-192 -176 -193 0
-192 176 193 0
192 -176 -193 0
192 176 193 0
-193 -177 -194 0
-193 177 -194 0
193 -177 194 0
193 177 -194 0
-194 -178 195 0
-194 178 195 0
194 -178 -195 0
194 178 -195 0
-195 -179 196 0
-195 179 196 0
195 -179 196 0
195 179 -196 0
-196 -180 197 0
-196 180 -197 0
196 -180 -197 0
196 180 -197 0
-197 -181 198 0
-197 181 -198 0
197 -181 -198 0
197 181 -198 0
-198 -182 -199 0
-198 182 199 0
198 -182 -199 0
198 182 -199 0
-199 -183 200 0
-199 183 -200 0
199 -183 -200 0
199 183 200 0
-200 -184 201 0
-200 184 -201 0
200 -184 201 0
200 184 201 0
-201 -185 202 0
-201 185 -202 0
201 -185 -202 0
201 185 202 0
-202 -186 -203 0
-202 186 203 0
202 -186 -203 0
202 186 -203 0
-203 -187 204 0
-203 187 204 0
203 -187 204 0
203 187 -204 0
-188 205 0
188 -205 0
-205 -189 206 0
-205 189 -206 0
205 -189 -206 0
205 189 -206 0
-206 -190 207 0
-206 190 -207 0
206 -190 -207 0
206 190 -207 0
-207 -191 -208 0
-207 191 -208 0
207 -191 -208 0
207 191 208 0
-208 -192 -209 0
-208 192 209 0
208 -192 -209 0
208 192 -209 0
-209 -193 -210 0
-209 193 210 0
209 -193 210 0
209 193 210 0
-210 -194 211 0
-210 194 211 0
210 -194 -211 0
210 194 211 0
-211 -195 212 0
-211 195 -212 0
211 -195 -212 0
211 195 212 0
-212 -196 213 0
-212 196 -213 0
212 -196 -213 0
212 196 213 0
-213 -197 214 0
-213 197 214 0
213 -197 -214 0
213 197 214 0
-214 -198 215 0
-214 198 215 0
214 -198 -215 0
214 198 -215 0
-215 -199 -216 0
-215 199 216 0
215 -199 -216 0
215 199 -216 0
-216 -200 217 0
-216 200 217 0
216 -200 -217 0
216 200 -217 0
-217 -201 218 0
-217 201 -218 0
217 -201 -218 0
217 201 -218 0
-218 -202 -219 0
-218 202 219 0
218 -202 219 0
218 202 219 0
-219 -203 -220 0
-219 203 220 0
219 -203 -220 0
219 203 220 0
-220 -204 -221 0
-220 204 -221 0
220 -204 221 0
220 204 -221 0
-205 -1114 222 0
-205 1114 -222 0
205 -1115 222 0
205 1115 -222 0
-222 -206 -223 0
-222 206 -223 0
222 -206 -223 0
222 206 223 0
-223 -207 -224 0
-223 207 -224 0
223 -207 224 0
223 207 -224 0
-224 -208 -225 0
-224 208 225 0
224 -208 -225 0
224 208 225 0
-225 -209 226 0
-225 209 226 0
225 -209 -226 0
225 209 226 0
-226 -210 -227 0
-226 210 -227 0
226 -210 227 0
226 210 -227 0
-227 -211 -228 0
-227 211 228 0
227 -211 -228 0
227 211 -228 0
-228 -212 -1140 229 0
-228 -212 1140 -229 0
-228 212 -1141 229 0
-228 212 1141 -229 0
228 -212 -1142 229 0
228 -212 1142 -229 0
228 212 -1143 229 0
228 212 1143 -229 0
-229 -213 230 0
-229 213 -230 0
229 -213 -230 0
229 213 230 0
-230 -214 -231 0
-230 214 231 0
230 -214 -231 0
230 214 231 0
-231 -215 -1152 232 0
-231 -215 1152 -232 0
-231 215 -1153 232 0
-231 215 1153 -232 0
231 -215 -1154 232 0
231 -215 1154 -232 0
231 215 -1155 232 0
231 215 1155 -232 0
-232 -216 -233 0
-232 216 233 0
232 -216 233 0
232 216 233 0
-233 -217 -1160 234 0
-233 -217 1160 -234 0
-233 217 -1161 234 0
-233 217 1161 -234 0
233 -217 -1162 234 0
233 -217 1162 -234 0
233 217 -1163 234 0
233 217 1163 -234 0
-234 -218 235 0
-234 218 -235 0
234 -218 235 0
234 218 -235 0
-235 -219 236 0
-235 219 236 0
235 -219 -236 0
235 219 236 0
-236 -220 -237 0
-236 220 237 0
236 -220 -237 0
236 220 237 0
-237 -221 -238 0
-237 221 -238 0
237 -221 -238 0
237 221 238 0
-222 -239 0
222 239 0
-239 -223 240 0
-239 223 240 0
239 -223 240 0
239 223 -240 0
-240 -224 241 0
-240 224 -241 0
240 -224 241 0
240 224 241 0
-241 -225 -242 0
-241 225 242 0
241 -225 -242 0
241 225 242 0
-242 -226 -243 0
-242 226 -243 0
242 -226 -243 0
242 226 243 0
-243 -227 244 0
-243 227 -244 0
243 -227 -244 0
243 227 244 0
-244 -228 -245 0
-244 228 245 0
244 -228 245 0
244 228 245 0
-245 -229 -246 0
-245 229 -246 0
245 -229 246 0
245 229 246 0
-246 -230 247 0
-246 230 -247 0
246 -230 247 0
246 230 247 0
-247 -231 -1214 248 0
-247 -231 1214 -248 0
-247 231 -1215 248 0
-247 231 1215 -248 0
247 -231 -1216 248 0
247 -231 1216 -248 0
247 231 -1217 248 0
247 231 1217 -248 0
-248 -232 -249 0
-248 232 249 0
248 -232 249 0
248 232 249 0
-249 -233 -250 0
-249 233 -250 0
249 -233 -250 0
249 233 250 0
-250 -234 -251 0
-250 234 -251 0
250 -234 -251 0
250 234 251 0
-251 -235 -1230 252 0
-251 -235 1230 -252 0
-251 235 -1231 252 0
-251 235 1231 -252 0
251 -235 -1232 252 0
251 -235 1232 -252 0
251 235 -1233 252 0
251 235 1233 -252 0
-252 -236 -1234 253 0
-252 -236 1234 -253 0
-252 236 -1235 253 0
-252 236 1235 -253 0
252 -236 -1236 253 0
252 -236 1236 -253 0
252 236 -1237 253 0
252 236 1237 -253 0
-253 -237 254 0
-253 237 254 0
253 -237 -254 0
253 237 -254 0
-254 -238 255 0
-254 238 255 0
254 -238 255 0
254 238 -255 0
-239 -256 0
239 256 0
-256 -240 -1248 257 0
-256 -240 1248 -257 0
-256 240 -1249 257 0
-256 240 1249 -257 0
256 -240 -1250 257 0
256 -240 1250 -257 0
256 240 -1251 257 0
256 240 1251 -257 0
-257 -241 -258 0
-257 241 258 0
257 -241 -258 0
257 241 -258 0
-258 -242 -259 0
-258 242 -259 0
258 -242 259 0
258 242 -259 0
-259 -243 260 0
-259 243 -260 0
259 -243 260 0
259 243 -260 0
-260 -244 261 0
-260 244 261 0
260 -244 -261 0
260 244 -261 0
-261 -245 262 0
-261 245 -262 0
261 -245 -262 0
261 245 262 0
-262 -246 263 0
-262 246 -263 0
262 -246 263 0
262 246 -263 0
-263 -247 264 0
-263 247 -264 0
263 -247 264 0
263 247 -264 0
-264 -248 -265 0
-264 248 -265 0
264 -248 265 0
264 248 -265 0
-265 -249 266 0
-265 249 266 0
265 -249 266 0
265 249 -266 0
-266 -250 -1288 267 0
-266 -250 1288 -267 0
-266 250 -1289 267 0
-266 250 1289 -267 0
266 -250 -1290 267 0
266 -250 1290 -267 0
266 250 -1291 267 0
266 250 1291 -267 0
-267 -251 -268 0
-267 251 268 0
267 -251 268 0
267 251 -268 0
-268 -252 269 0
-268 252 -269 0
268 -252 269 0
268 252 -269 0
-269 -253 270 0
-269 253 -270 0
269 -253 270 0
269 253 270 0
-270 -254 -271 0
-270 254 271 0
270 -254 -271 0
270 254 -271 0
-271 -255 272 0
-271 255 272 0
271 -255 272 0
271 255 -272 0
-256 273 0
256 -273 0
-273 -257 274 0
-273 257 -274 0
273 -257 -274 0
273 257 274 0
-274 -258 275 0
-274 258 275 0
274 -258 275 0
274 258 -275 0
-275 -259 276 0
-275 259 276 0
275 -259 276 0
275 259 -276 0
-276 -260 277 0
-276 260 -277 0
276 -260 277 0
276 260 277 0
-277 -261 -278 0
-277 261 278 0
277 -261 -278 0
277 261 278 0
-278 -262 -279 0
-278 262 -279 0
278 -262 279 0
278 262 -279 0
-279 -263 -280 0
-279 263 -280 0
279 -263 280 0
279 263 280 0
-280 -264 281 0
-280 264 -281 0
280 -264 281 0
280 264 281 0
-281 -265 -282 0
-281 265 -282 0
281 -265 -282 0
281 265 282 0
-282 -266 283 0
-282 266 283 0
282 -266 283 0
282 266 -283 0
-283 -267 284 0
-283 267 284 0
283 -267 284 0
283 267 -284 0
-284 -268 285 0
-284 268 285 0
284 -268 285 0
284 268 -285 0
-285 -269 286 0
-285 269 -286 0
285 -269 286 0
285 269 -286 0
-286 -270 287 0
-286 270 287 0
286 -270 -287 0
286 270 287 0
-287 -271 288 0
-287 271 288 0
287 -271 -288 0
287 271 288 0
-288 -272 -289 0
-288 272 -289 0
288 -272 289 0
288 272 289 0
289 0
