data/benchmarks/bayes/90-17-8-q.gr
p tw 1377 1156
184 971
36 53
214 230
67 68
85 583
247 264
99 100
96 113
18 35
91 672
159 160
110 685
229 1140
8 9
61 491
57 539
40 41
188 205
21 37
157 864
251 252
100 101
132 133
129 146
192 193
10 27
41 42
185 971
221 238
73 74
256 1251
284 285
133 134
159 937
162 179
14 15
188 982
225 226
43 60
97 696
74 75
254 271
72 532
106 107
103 120
166 167
233 1160
15 16
195 212
47 48
102 649
226 227
253 1236
258 259
113 695
217 1161
31 378
107 108
139 796
88 104
136 153
231 1217
78 557
199 200
269 286
180 196
48 49
228 245
29 45
80 81
77 94
259 260
140 797
272 288
140 141
121 137
106 664
96 629
169 186
232 233
213 229
81 82
261 278
62 78
110 127
109 675
27 358
173 174
232 1154
243 260
22 23
202 219
250 1288
3 19
233 234
51 68
265 266
80 629
114 115
246 262
95 111
143 160
155 171
206 207
187 203
55 56
235 252
184 970
36 52
266 267
85 582
247 263
252 1235
96 112
147 148
128 144
91 671
207 208
61 490
239 240
220 236
228 1143
268 285
71 531
129 145
161 177
10 26
240 241
256 1250
221 237
15 379
253 269
102 118
266 1291
25 42
181 182
159 936
162 178
194 210
43 59
97 695
273 274
254 270
72 531
135 151
214 215
17 34
195 211
102 648
156 857
227 243
76 92
252 1230
139 795
109 126
136 152
5 297
78 556
21 22
168 184
201 218
50 67
228 244
260 276
77 93
113 114
140 796
157 867
248 1214
108 673
142 159
26 356
169 185
205 206
54 55
83 100
261 277
52 521
110 126
146 147
109 674
27 357
232 1153
175 192
24 41
168 970
202 218
141 864
51 67
87 88
101 651
84 101
116 133
143 159
179 180
176 193
28 29
240 1251
9 25
57 74
235 251
88 89
55 531
120 121
117 134
252 1234
149 166
180 181
29 30
209 226
61 489
61 62
58 75
42 58
105 663
90 107
228 1142
121 122
71 530
236 1235
268 284
150 167
134 150
2 3
108 677
213 214
31 48
62 63
242 259
94 95
19 330
15 378
75 91
91 108
123 140
123 796
154 155
266 1290
89 663
3 4
183 200
35 36
32 49
16 32
231 1152
64 81
246 247
95 96
20 331
74 540
127 128
250 1291
124 141
108 124
215 1153
5 22
36 37
216 233
17 33
65 82
49 65
156 856
97 114
279 280
128 129
139 794
109 125
160 161
157 174
6 23
5 296
220 221
201 217
69 70
249 266
50 66
101 102
98 115
82 98
60 488
161 162
108 672
142 158
10 11
190 207
44 489
39 56
23 39
253 254
234 250
83 99
131 148
52 520
251 1233
234 1162
194 195
175 191
43 44
223 240
24 40
72 89
56 72
212 1143
286 287
101 650
135 136
267 283
111 682
116 132
164 181
84 585
176 192
227 228
208 224
76 77
240 1250
256 273
57 73
287 288
55 530
168 169
252 1233
149 165
197 214
30 46
209 225
236 1234
105 662
241 257
77 554
260 261
68 585
90 106
257 274
97 630
248 1217
150 166
61 555
108 676
26 359
182 198
31 47
103 719
261 262
242 258
19 329
73 538
123 795
123 139
89 662
183 199
231 248
215 231
64 80
74 539
141 867
124 140
10 356
156 172
215 1152
9 10
5 21
38 55
216 232
264 281
248 264
97 113
130 147
157 173
189 205
42 43
176 937
268 269
71 88
85 651
249 265
134 135
114 696
235 1233
163 180
12 29
190 206
44 488
75 76
255 272
104 121
131 147
251 1232
234 1161
16 17
196 213
13 30
45 62
223 239
212 1142
108 109
231 1155
105 122
137 154
92 677
164 180
84 584
49 50
229 246
46 63
78 95
3 330
109 110
138 155
170 187
201 202
19 36
197 213
50 51
230 247
82 83
262 279
79 96
63 79
267 1288
111 128
68 584
142 143
60 491
97 629
171 188
23 24
203 220
20 37
4 20
61 554
52 69
107 670
83 84
103 718
234 235
115 116
263 280
112 129
123 794
144 161
175 176
24 25
204 221
56 57
236 253
53 70
37 53
267 268
85 102
116 117
145 162
177 194
155 859
208 209
26 43
57 58
167 168
237 254
38 54
89 90
86 103
70 86
158 864
118 135
175 935
149 150
130 146
32 379
178 195
30 31
210 227
27 44
11 27
241 242
247 1216
90 91
176 936
200 201
71 87
85 650
119 136
139 859
270 287
151 168
114 695
182 183
235 1232
163 179
31 32
141 142
211 228
12 28
60 77
44 60
274 275
255 271
123 124
104 120
152 169
73 541
1 18
215 216
196 212
64 65
174 175
244 261
45 61
93 110
156 157
5 6
185 202
10 359
248 249
110 684
97 98
229 245
78 94
3 329
57 538
126 143
94 685
189 190
170 186
148 149
69 521
218 235
19 35
281 282
262 278
111 127
185 970
222 223
203 219
263 279
257 1251
144 160
122 123
252 269
236 252
85 101
253 1235
113 694
217 1160
31 377
177 193
155 858
26 42
231 1216
59 76
237 253
175 934
229 1143
269 285
118 134
32 378
210 226
63 64
106 663
96 628
247 1215
92 109
270 286
139 858
267 1291
151 167
235 1231
4 5
184 201
33 50
211 227
243 259
125 142
80 628
37 38
217 234
34 51
66 83
120 719
244 260
233 1163
158 175
7 24
185 201
70 71
91 670
67 84
110 683
250 267
99 116
130 131
159 176
11 12
94 684
191 208
40 57
69 520
218 234
251 268
100 117
132 149
256 1249
163 164
192 209
44 45
224 241
41 58
25 41
73 90
159 935
133 150
257 1250
97 694
165 182
196 197
14 31
72 530
155 156
225 242
74 91
288 289
106 123
137 138
247 248
96 97
166 183
184 973
18 19
198 215
31 376
15 32
85 585
47 64
229 230
188 189
231 1215
258 275
59 75
78 555
107 124
229 1142
139 156
280 281
57 541
129 130
157 866
140 795
199 216
48 65
262 263
80 97
106 662
111 112
92 108
140 157
172 189
203 204
184 200
162 163
232 249
33 49
27 356
81 98
232 1152
144 145
254 255
125 141
103 104
173 190
84 100
22 39
236 237
217 233
195 196
265 282
66 82
114 131
177 178
102 651
158 174
206 223
7 23
117 133
55 72
217 1163
269 270
250 266
118 119
228 229
99 115
77 78
61 488
147 164
58 74
228 1141
210 211
94 683
191 207
169 170
239 256
40 56
96 631
151 152
132 148
110 111
256 1248
15 377
91 107
243 244
266 1289
224 240
202 203
109 677
73 89
159 934
32 48
250 1290
168 973
20 330
143 144
165 181
14 30
80 631
235 236
106 122
65 81
184 972
198 214
85 584
47 63
252 1237
6 22
78 554
139 155
98 114
21 38
140 794
157 865
71 533
108 671
80 96
113 130
39 55
172 188
25 26
205 222
54 71
146 163
72 88
188 983
101 649
97 697
87 104
240 1249
179 196
102 650
156 859
28 45
252 1232
139 797
120 137
257 273
180 197
228 1140
61 78
248 1216
272 289
108 675
26 358
121 138
153 170
2 19
19 328
15 376
213 230
266 1288
94 111
109 676
27 359
231 247
84 85
154 171
250 1289
168 972
20 329
74 538
35 52
141 866
176 177
217 218
111 685
246 263
95 112
127 144
171 983
264 280
117 118
187 204
55 533
250 251
68 85
209 210
252 1236
58 59
128 145
238 255
160 177
191 192
236 1237
105 665
150 151
77 557
220 237
69 86
71 532
108 670
101 118
242 243
113 129
91 92
161 178
271 288
224 225
205 1115
183 184
253 270
251 1231
54 70
32 33
102 119
212 229
13 29
89 665
234 1160
165 166
275 276
146 162
124 125
194 211
212 1141
105 121
101 648
231 1154
92 676
216 217
87 103
65 66
84 583
135 152
46 62
215 1155
240 1248
198 199
245 262
276 277
179 195
157 158
156 858
227 244
28 44
6 7
76 93
138 154
186 203
252 1231
139 140
249 250
230 246
98 99
168 185
79 95
68 583
190 191
260 277
60 490
61 77
39 40
97 628
219 236
20 36
108 674
26 357
172 173
248 1215
282 283
44 491
131 132
153 169
2 18
112 128
253 1234
223 224
94 110
72 73
204 220
53 69
283 284
168 971
164 165
20 328
141 865
145 161
193 210
111 684
256 257
127 143
171 982
9 26
197 198
55 532
68 84
178 194
27 43
257 258
238 254
176 935
160 176
85 649
119 135
105 664
236 1236
42 59
77 556
114 694
101 117
134 151
60 76
61 557
271 287
107 673
152 168
19 331
73 540
75 92
123 797
205 1114
231 232
212 228
251 1230
89 664
4 297
93 109
212 1140
16 33
231 1153
74 541
38 39
92 675
10 358
108 125
84 582
215 1154
245 261
264 265
3 328
126 142
158 867
49 66
8 25
186 202
71 72
68 582
12 13
82 99
60 489
219 235
104 105
44 490
23 40
234 251
13 14
45 46
115 132
234 1163
252 268
105 106
56 73
267 284
193 209
46 47
111 683
155 857
78 79
226 243
138 139
208 225
167 184
19 20
89 106
32 377
230 231
79 80
259 276
247 1214
176 934
30 47
85 648
139 857
171 172
241 258
77 555
20 21
185 973
200 217
52 53
235 1230
267 1290
97 631
263 264
61 556
112 113
182 199
107 672
141 158
73 539
53 54
233 250
34 50
120 718
4 296
145 146
215 232
233 1162
174 191
26 27
113 697
237 238
92 674
10 357
86 87
156 173
67 83
110 682
266 283
175 937
158 866
178 179
248 265
159 175
27 28
207 224
8 24
270 271
251 267
189 206
100 116
148 165
211 212
192 208
60 61
114 697
222 1115
41 57
240 257
271 272
152 153
222 239
133 149
1 2
181 198
257 1249
212 213
244 245
115 131
93 94
225 241
74 90
122 139
185 186
166 182
214 231
15 31
245 246
155 856
226 242
277 278
231 1214
126 127
258 274
91 673
107 123
229 1141
186 187
3 331
57 540
167 183
218 219
89 105
32 376
199 215
48 64
278 279
259 275
140 156
139 856
63 80
219 220
185 972
267 1289
200 216
232 248
81 97
4 21
107 671
141 157
173 189
22 38
252 253
72 533
233 249
265 281
114 130
233 1161
37 54
193 194
174 190
253 1237
206 222
59 60
113 696
31 379
55 71
217 1162
88 105
266 282
285 286
147 163
158 865
175 936
70 87
29 46
94 682
207 223
92 93
11 28
106 665
96 630
247 1217
148 164
184 185
33 34
222 1114
62 79
240 256
125 126
232 1155
44 61
257 1248
3 20
181 197
66 67
80 630
122 138
158 159
155 172
7 8
